&CONTROL
  calculation = 'relax'
  prefix      = 'V_Si'  
  outdir      = './tmp/'
  pseudo_dir  = '../../pseudo/'
/
&SYSTEM
  ibrav = 0
  nat = 63
  ntyp = 1
  tot_charge = 0
  ecutwfc = 30.0
  ecutrho = 240.0
  assume_isolated = 'mp'
/
&ELECTRONS  
conv_thr = 1.0d-5
mixing_beta = 0.7 
/
&IONS
ion_dynamics = 'bfgs'
/
ATOMIC_SPECIES
 Si 28.0855 Si.pbe-n-rrkjus_psl.1.0.0.UPF
CELL_PARAMETERS (angstrom)
10.938565562   0.000000000   0.000000000
0.000000000 10.938565562   0.000000000
0.000000000   0.000000000 10.938565562
ATOMIC_POSITIONS crystal
Si 0.250000 0.250000 0.000000 
Si 0.250000 0.000000 0.250000 
Si 0.000000 0.250000 0.250000 
Si 0.125000 0.125000 0.125000 
Si 0.375000 0.375000 0.125000 
Si 0.375000 0.125000 0.375000 
Si 0.125000 0.375000 0.375000 
Si 0.000000 0.000000 0.500000 
Si 0.250000 0.250000 0.500000
Si 0.250000 0.000000 0.750000 
Si 0.000000 0.250000 0.750000 
Si 0.125000 0.125000 0.625000 
Si 0.375000 0.375000 0.625000 
Si 0.375000 0.125000 0.875000 
Si 0.125000 0.375000 0.875000 
Si 0.000000 0.500000 0.000000 
Si 0.250000 0.750000 0.000000 
Si 0.250000 0.500000 0.250000 
Si 0.000000 0.750000 0.250000 
Si 0.125000 0.625000 0.125000
Si 0.375000 0.875000 0.125000 
Si 0.375000 0.625000 0.375000 
Si 0.125000 0.875000 0.375000 
Si 0.000000 0.500000 0.500000 
Si 0.250000 0.750000 0.500000 
Si 0.250000 0.500000 0.750000 
Si 0.000000 0.750000 0.750000 
Si 0.125000 0.625000 0.625000 
Si 0.375000 0.875000 0.625000 
Si 0.375000 0.625000 0.875000 
Si 0.125000 0.875000 0.875000 
Si 0.500000 0.000000 0.000000 
Si 0.750000 0.250000 0.000000 
Si 0.750000 0.000000 0.250000 
Si 0.500000 0.250000 0.250000 
Si 0.625000 0.125000 0.125000 
Si 0.875000 0.375000 0.125000 
Si 0.875000 0.125000 0.375000 
Si 0.625000 0.375000 0.375000 
Si 0.500000 0.000000 0.500000 
Si 0.750000 0.250000 0.500000 
Si 0.750000 0.000000 0.750000 
Si 0.500000 0.250000 0.750000 
Si 0.625000 0.125000 0.625000 
Si 0.875000 0.375000 0.625000 
Si 0.875000 0.125000 0.875000 
Si 0.625000 0.375000 0.875000 
Si 0.500000 0.500000 0.000000 
Si 0.750000 0.750000 0.000000 
Si 0.750000 0.500000 0.250000 
Si 0.500000 0.750000 0.250000 
Si 0.625000 0.625000 0.125000 
Si 0.875000 0.875000 0.125000 
Si 0.875000 0.625000 0.375000 
Si 0.625000 0.875000 0.375000 
Si 0.500000 0.500000 0.500000 
Si 0.750000 0.750000 0.500000 
Si 0.750000 0.500000 0.750000 
Si 0.500000 0.750000 0.750000 
Si 0.625000 0.625000 0.625000 
Si 0.875000 0.875000 0.625000 
Si 0.875000 0.625000 0.875000 
Si 0.625000 0.875000 0.875000
K_POINTS gamma

