&CONTROL
  calculation = 'bands'
  prefix      = 'si'
  outdir      = '../tmp/'
  pseudo_dir  = '../pseudo/'
/
&SYSTEM
  ibrav = 2,  celldm(1) = 10.33
  nat = 2,    ntyp = 1
  ecutwfc = 40
  nbnd = 8
/
&ELECTRONS
  conv_thr = 1.0d-6
/
ATOMIC_SPECIES
  Si 28.0855 Si.pbe-n-rrkjus_psl.1.0.0.UPF
ATOMIC_POSITIONS alat
  Si  0.00  0.00  0.00
  Si  0.25  0.25  0.25
K_POINTS crystal_b
  5
  0.500 0.500 0.500  30   ! L
  0.000 0.000 0.000  30   ! Gamma
  0.500 0.000 0.500  30   ! X
  0.625 0.250 0.625  30   ! U
  0.000 0.000 0.000  0     ! Gamma

