&BANDS
  prefix  = 'si'
  outdir  = '../tmp/'
  filband = 'si.bands.dat'
/

