&CONTROL
  calculation   = 'vc-relax'
  prefix        = 'SiS2'
  outdir        = './tmp/'
  pseudo_dir    = '../pseudo/'
  forc_conv_thr = 1.0d-2
  etot_conv_thr = 1.0d-3
/
&SYSTEM
  ibrav = 0
  nat = 12
  ntyp = 2
  ecutwfc = 30.0
  ecutrho = 240.0
/
&ELECTRONS  
conv_thr = 1.0d-5 
/
&IONS
ion_dynamics = 'bfgs'
/
&CELL  
cell_dynamics='bfgs'
/
ATOMIC_SPECIES
  Si 28.0855 Si.pbe-n-rrkjus_psl.1.0.0.UPF
  S  32.065  S.pbe-n-rrkjus_psl.1.0.0.UPF
CELL_PARAMETERS (angstrom)   
5.587867654   0.000000000   0.000000000
0.000000000   6.316675790   0.000008202
0.000000000   0.000013644  11.141122954
ATOMIC_POSITIONS (crystal) 
Si  0.7499998455  0.0000000000  0.0000000000 
Si  0.2500001545  0.0000000000  0.0000000000 
Si  0.2500001606  0.5000000000  0.5000000000 
Si  0.7499998394  0.5000000000  0.5000000000 
S   0.5000000000  0.3169031181  0.3960080758 
S   0.0000000000  0.1830962312  0.1039957356 
S   0.5000000000  0.8168915565  0.1039899962 
S   0.0000000000  0.6830972254  0.3960087073 
S   0.0000000000  0.8169037688  0.8960042644 
S   0.5000000000  0.6830968819  0.6039919242 
S   0.0000000000  0.3169027746  0.6039912927 
S   0.5000000000  0.1831084435  0.8960100038
K_POINTS automatic
  3 3 2  0 0 0

