&DOS
  prefix  = 'si'
  outdir  = '../tmp/'
  fildos  = 'si.dos.dat'
  Emin    = -10.0,  Emax = 20.0
  DeltaE  = 0.05
/

