&CONTROL
  calculation = 'relax'
  prefix      = 'S_Si'  
  outdir      = './tmp/'
  pseudo_dir  = '../../pseudo/'
/
&SYSTEM
  ibrav = 0
  nat = 64
  ntyp = 2
  tot_charge = 2
  ecutwfc = 30.0
  ecutrho = 240.0
  occupations = 'smearing'
  smearing    = 'gaussian'
  degauss     = 0.01
/
&ELECTRONS  
conv_thr = 1.0d-5
mixing_beta = 0.7 
/
&IONS
ion_dynamics = 'bfgs'
/
ATOMIC_SPECIES
 Si 28.0855 Si.pbe-n-rrkjus_psl.1.0.0.UPF
  S 32.065 S.pbe-n-rrkjus_psl.1.0.0.UPF
CELL_PARAMETERS (angstrom)
10.938565562   0.000000000   0.000000000
0.000000000 10.938565562   0.000000000
0.000000000   0.000000000 10.938565562
ATOMIC_POSITIONS crystal
S 0.000000 0.000000 0.000000
Si 0.250360 0.250360 -0.003052
Si 0.250360 -0.003052 0.250360
Si -0.003052 0.250360 0.250360
Si 0.128567 0.128567 0.128567
Si 0.374515 0.374515 0.125988
Si 0.374515 0.125988 0.374515
Si 0.125988 0.374515 0.374515
Si 0.000000 0.000000 0.500000
Si 0.250359 0.250359 0.500110
Si 0.250360 0.003052 0.749640
Si 0.003052 0.250360 0.749640
Si 0.125012 0.125012 0.623444
Si 0.375248 0.375248 0.624752
Si 0.376556 0.125012 0.874988
Si 0.125012 0.376556 0.874988
Si 0.000000 0.500000 0.000000
Si 0.250360 0.749640 0.003052
Si 0.250359 0.500110 0.250359
Si 0.003052 0.749640 0.250360
Si 0.125012 0.623444 0.125012
Si 0.376556 0.874988 0.125012
Si 0.375248 0.624752 0.375248
Si 0.125012 0.874988 0.376556
Si 0.000000 0.500000 0.500000
Si 0.250359 0.749641 0.499890
Si 0.250359 0.499890 0.749641
Si -0.003052 0.749640 0.749640
Si 0.125988 0.625485 0.625485
Si 0.374515 0.874012 0.625485
Si 0.374515 0.625485 0.874012
Si 0.128567 0.871433 0.871433
Si 0.500000 0.000000 0.000000
Si 0.749640 0.250360 0.003052
Si 0.749640 0.003052 0.250360
Si 0.500110 0.250359 0.250359
Si 0.623444 0.125012 0.125012
Si 0.874988 0.376556 0.125012
Si 0.874988 0.125012 0.376556
Si 0.624752 0.375248 0.375248
Si 0.500000 0.000000 0.500000
Si 0.749641 0.250359 0.499890
Si 0.749640 -0.003052 0.749640
Si 0.499890 0.250359 0.749641
Si 0.625485 0.125988 0.625485
Si 0.874012 0.374515 0.625485
Si 0.871433 0.128567 0.871433
Si 0.625485 0.374515 0.874012
Si 0.500000 0.500000 0.000000
Si 0.749640 0.749640 -0.003052
Si 0.749641 0.499890 0.250359
Si 0.499890 0.749641 0.250359
Si 0.625485 0.625485 0.125988
Si 0.871433 0.871433 0.128567
Si 0.874012 0.625485 0.374515
Si 0.625485 0.874012 0.374515
Si 0.500000 0.500000 0.500000
Si 0.749641 0.749641 0.500110
Si 0.749641 0.500110 0.749641
Si 0.500110 0.749641 0.749641
Si 0.624752 0.624752 0.624752
Si 0.874988 0.874988 0.623444
Si 0.874988 0.623444 0.874988
Si 0.623444 0.874988 0.874988
K_POINTS gamma

